benchmark/obecase/comdel2.out
20 {f:str.at(Param0,+(+(4,+(4,+(4,+(4,4)))),2))}
0.0560810000
